NAME : rnd3_50.tsp.tsp.opt.tour
TYPE : TOUR
DIMENSION : 50
TOUR_SECTION
1
26
14
49
20
25
3
21
8
10
48
42
19
41
35
33
5
30
31
22
39
37
43
13
11
23
34
50
38
36
24
4
12
45
27
44
9
16
32
47
15
40
29
28
17
2
18
46
7
6
-1